100
42
40
41
143
24
385
40
229
43
433
18
125
33
234
27
431
6
343
28
183
36
458
33
122
38
227
39
156
37
247
16
367
14
327
28
421
32
419
41
101
36
2
43
16
18
445
5
119
27
254
26
58
22
78
16
59
44
375
2
35
34
465
3
479
24
53
2
124
14
263
25
475
42
190
32
219
8
169
30
327
7
165
3
134
30
188
7
322
45
145
30
146
1
195
6
446
17
210
48
363
10
324
37
136
27
471
25
441
14
86
7
29
5
32
28
141
13
260
48
426
11
327
24
352
24
271
43
8
7
183
30
303
29
28
34
425
12
32
33
356
38
153
9
330
47
177
38
174
45
288
44
246
18
406
9
26
28
75
1
40
26
140
49
400
32
256
41
270
23
295
36
229
5
128
21
288
32
352
42
214
30
235
4
262
48
469
22
61
36
29
18
214
18
250
40
191
12
266
13
62
